
Gurobi 7.0.2 (linux64, Java) logging started Mon 20 May 2019 09:24:46 PM -03


Gurobi 7.0.2 (linux64, Java) logging started Mon 20 May 2019 09:26:07 PM -03

Warning: variable name "w[0, 0]" has a space
Warning: constraint name "w_0,0 <= x_0" has a space
Warning: to let Gurobi read it back, use rlp format
Optimize a model with 650 rows, 420 columns and 1110 nonzeros
Variable types: 0 continuous, 420 integer (20 binary)
Coefficient statistics:
  Matrix range     [1e+00, 1e+00]
  Objective range  [1e+00, 1e+01]
  Bounds range     [1e+00, 1e+00]
  RHS range        [1e+00, 2e+00]
Found heuristic solution: objective -0
Presolve removed 448 rows and 309 columns
Presolve time: 0.00s
Presolved: 202 rows, 111 columns, 424 nonzeros
Variable types: 0 continuous, 111 integer (111 binary)

Root relaxation: objective 3.746667e+02, 157 iterations, 0.00 seconds

    Nodes    |    Current Node    |     Objective Bounds      |     Work
 Expl Unexpl |  Obj  Depth IntInf | Incumbent    BestBd   Gap | It/Node Time

     0     0  374.66667    0  111   -0.00000  374.66667      -     -    0s
H    0     0                     220.0000000  374.66667  70.3%     -    0s
H    0     0                     240.0000000  374.66667  56.1%     -    0s
     0     0  317.83333    0  111  240.00000  317.83333  32.4%     -    0s
H    0     0                     270.0000000  317.83333  17.7%     -    0s
H    0     0                     280.0000000  317.83333  13.5%     -    0s
     0     0  311.66667    0  108  280.00000  311.66667  11.3%     -    0s
     0     0  310.55556    0  108  280.00000  310.55556  10.9%     -    0s
     0     0  309.54545    0  110  280.00000  309.54545  10.6%     -    0s
     0     0  309.54545    0  110  280.00000  309.54545  10.6%     -    0s
     0     2  309.54545    0  110  280.00000  309.54545  10.6%     -    0s

Cutting planes:
  Gomory: 3
  Clique: 126
  MIR: 1
  Zero half: 14

Explored 10 nodes (566 simplex iterations) in 0.03 seconds
Thread count was 4 (of 4 available processors)

Solution count 5: 280 270 240 ... -0
Pool objective bound 280

Optimal solution found (tolerance 1.00e-04)
Best objective 2.800000000000e+02, best bound 2.800000000000e+02, gap 0.0000%

Gurobi 7.0.2 (linux64, Java) logging started Mon 20 May 2019 09:33:38 PM -03

Warning: variable name "w[0, 0]" has a space
Warning: constraint name "w_0,0 <= x_0" has a space
Warning: to let Gurobi read it back, use rlp format
Optimize a model with 1220 rows, 420 columns and 2060 nonzeros
Variable types: 0 continuous, 420 integer (20 binary)
Coefficient statistics:
  Matrix range     [1e+00, 1e+00]
  Objective range  [1e+00, 1e+01]
  Bounds range     [1e+00, 1e+00]
  RHS range        [1e+00, 2e+00]
Found heuristic solution: objective -0
Presolve removed 1018 rows and 309 columns
Presolve time: 0.00s
Presolved: 202 rows, 111 columns, 424 nonzeros
Variable types: 0 continuous, 111 integer (111 binary)

Root relaxation: objective 3.746667e+02, 157 iterations, 0.00 seconds

    Nodes    |    Current Node    |     Objective Bounds      |     Work
 Expl Unexpl |  Obj  Depth IntInf | Incumbent    BestBd   Gap | It/Node Time

     0     0  374.66667    0  111   -0.00000  374.66667      -     -    0s
H    0     0                     220.0000000  374.66667  70.3%     -    0s
H    0     0                     240.0000000  374.66667  56.1%     -    0s
     0     0  317.83333    0  111  240.00000  317.83333  32.4%     -    0s
H    0     0                     270.0000000  317.83333  17.7%     -    0s
H    0     0                     280.0000000  317.83333  13.5%     -    0s
     0     0  311.66667    0  108  280.00000  311.66667  11.3%     -    0s
     0     0  310.55556    0  108  280.00000  310.55556  10.9%     -    0s
     0     0  309.54545    0  110  280.00000  309.54545  10.6%     -    0s
     0     0  309.54545    0  110  280.00000  309.54545  10.6%     -    0s
     0     2  309.54545    0  110  280.00000  309.54545  10.6%     -    0s

Cutting planes:
  Gomory: 3
  Clique: 126
  MIR: 1
  Zero half: 14

Explored 10 nodes (566 simplex iterations) in 0.03 seconds
Thread count was 4 (of 4 available processors)

Solution count 5: 280 270 240 ... -0
Pool objective bound 280

Optimal solution found (tolerance 1.00e-04)
Best objective 2.800000000000e+02, best bound 2.800000000000e+02, gap 0.0000%

Gurobi 7.0.2 (linux64, Java) logging started Mon 20 May 2019 09:41:36 PM -03

Warning: variable name "w[0, 0]" has a space
Warning: constraint name "w_0,0 <= x_0" has a space
Warning: to let Gurobi read it back, use rlp format
Optimize a model with 1220 rows, 420 columns and 2060 nonzeros
Variable types: 0 continuous, 420 integer (420 binary)
Coefficient statistics:
  Matrix range     [1e+00, 1e+00]
  Objective range  [1e+00, 1e+01]
  Bounds range     [1e+00, 1e+00]
  RHS range        [1e+00, 2e+00]
Found heuristic solution: objective -0
Presolve removed 1018 rows and 309 columns
Presolve time: 0.00s
Presolved: 202 rows, 111 columns, 424 nonzeros
Variable types: 0 continuous, 111 integer (111 binary)

Root relaxation: objective 3.746667e+02, 157 iterations, 0.00 seconds

    Nodes    |    Current Node    |     Objective Bounds      |     Work
 Expl Unexpl |  Obj  Depth IntInf | Incumbent    BestBd   Gap | It/Node Time

     0     0  374.66667    0  111   -0.00000  374.66667      -     -    0s
H    0     0                     220.0000000  374.66667  70.3%     -    0s
H    0     0                     240.0000000  374.66667  56.1%     -    0s
     0     0  317.83333    0  111  240.00000  317.83333  32.4%     -    0s
H    0     0                     270.0000000  317.83333  17.7%     -    0s
H    0     0                     280.0000000  317.83333  13.5%     -    0s
     0     0  311.66667    0  108  280.00000  311.66667  11.3%     -    0s
     0     0  310.55556    0  108  280.00000  310.55556  10.9%     -    0s
     0     0  309.54545    0  110  280.00000  309.54545  10.6%     -    0s
     0     0  309.54545    0  110  280.00000  309.54545  10.6%     -    0s
     0     2  309.54545    0  110  280.00000  309.54545  10.6%     -    0s

Cutting planes:
  Gomory: 3
  Clique: 126
  MIR: 1
  Zero half: 14

Explored 10 nodes (566 simplex iterations) in 0.03 seconds
Thread count was 4 (of 4 available processors)

Solution count 5: 280 270 240 ... -0
Pool objective bound 280

Optimal solution found (tolerance 1.00e-04)
Best objective 2.800000000000e+02, best bound 2.800000000000e+02, gap 0.0000%

Gurobi 7.0.2 (linux64, Java) logging started Mon 20 May 2019 09:42:35 PM -03

Warning: constraint name "-w_0,0+x_0,0+x_0,0<= 1" has a space
Optimize a model with 1220 rows, 420 columns and 2060 nonzeros
Variable types: 0 continuous, 420 integer (420 binary)
Coefficient statistics:
  Matrix range     [1e+00, 1e+00]
  Objective range  [1e+00, 1e+01]
  Bounds range     [1e+00, 1e+00]
  RHS range        [1e+00, 2e+00]
Found heuristic solution: objective -0
Presolve removed 1018 rows and 309 columns
Presolve time: 0.00s
Presolved: 202 rows, 111 columns, 424 nonzeros
Variable types: 0 continuous, 111 integer (111 binary)

Root relaxation: objective 3.746667e+02, 157 iterations, 0.00 seconds

    Nodes    |    Current Node    |     Objective Bounds      |     Work
 Expl Unexpl |  Obj  Depth IntInf | Incumbent    BestBd   Gap | It/Node Time

     0     0  374.66667    0  111   -0.00000  374.66667      -     -    0s
H    0     0                     220.0000000  374.66667  70.3%     -    0s
H    0     0                     240.0000000  374.66667  56.1%     -    0s
     0     0  317.83333    0  111  240.00000  317.83333  32.4%     -    0s
H    0     0                     270.0000000  317.83333  17.7%     -    0s
H    0     0                     280.0000000  317.83333  13.5%     -    0s
     0     0  311.66667    0  108  280.00000  311.66667  11.3%     -    0s
     0     0  310.55556    0  108  280.00000  310.55556  10.9%     -    0s
     0     0  309.54545    0  110  280.00000  309.54545  10.6%     -    0s
     0     0  309.54545    0  110  280.00000  309.54545  10.6%     -    0s
     0     2  309.54545    0  110  280.00000  309.54545  10.6%     -    0s

Cutting planes:
  Gomory: 3
  Clique: 126
  MIR: 1
  Zero half: 14

Explored 10 nodes (566 simplex iterations) in 0.03 seconds
Thread count was 4 (of 4 available processors)

Solution count 5: 280 270 240 ... -0
Pool objective bound 280

Optimal solution found (tolerance 1.00e-04)
Best objective 2.800000000000e+02, best bound 2.800000000000e+02, gap 0.0000%

Gurobi 7.0.2 (linux64, Java) logging started Mon 20 May 2019 09:42:53 PM -03

Warning: linear constraint 20 and linear constraint 21 have the same name "w_0,0<=x_0"
Optimize a model with 1220 rows, 420 columns and 2060 nonzeros
Variable types: 0 continuous, 420 integer (420 binary)
Coefficient statistics:
  Matrix range     [1e+00, 1e+00]
  Objective range  [1e+00, 1e+01]
  Bounds range     [1e+00, 1e+00]
  RHS range        [1e+00, 2e+00]
Found heuristic solution: objective -0
Presolve removed 1018 rows and 309 columns
Presolve time: 0.00s
Presolved: 202 rows, 111 columns, 424 nonzeros
Variable types: 0 continuous, 111 integer (111 binary)

Root relaxation: objective 3.746667e+02, 157 iterations, 0.00 seconds

    Nodes    |    Current Node    |     Objective Bounds      |     Work
 Expl Unexpl |  Obj  Depth IntInf | Incumbent    BestBd   Gap | It/Node Time

     0     0  374.66667    0  111   -0.00000  374.66667      -     -    0s
H    0     0                     220.0000000  374.66667  70.3%     -    0s
H    0     0                     240.0000000  374.66667  56.1%     -    0s
     0     0  317.83333    0  111  240.00000  317.83333  32.4%     -    0s
H    0     0                     270.0000000  317.83333  17.7%     -    0s
H    0     0                     280.0000000  317.83333  13.5%     -    0s
     0     0  311.66667    0  108  280.00000  311.66667  11.3%     -    0s
     0     0  310.55556    0  108  280.00000  310.55556  10.9%     -    0s
     0     0  309.54545    0  110  280.00000  309.54545  10.6%     -    0s
     0     0  309.54545    0  110  280.00000  309.54545  10.6%     -    0s
     0     2  309.54545    0  110  280.00000  309.54545  10.6%     -    0s

Cutting planes:
  Gomory: 3
  Clique: 126
  MIR: 1
  Zero half: 14

Explored 10 nodes (566 simplex iterations) in 0.03 seconds
Thread count was 4 (of 4 available processors)

Solution count 5: 280 270 240 ... -0
Pool objective bound 280

Optimal solution found (tolerance 1.00e-04)
Best objective 2.800000000000e+02, best bound 2.800000000000e+02, gap 0.0000%

Gurobi 7.0.2 (linux64, Java) logging started Mon 20 May 2019 09:43:35 PM -03

Optimize a model with 1220 rows, 420 columns and 2060 nonzeros
Variable types: 0 continuous, 420 integer (420 binary)
Coefficient statistics:
  Matrix range     [1e+00, 1e+00]
  Objective range  [1e+00, 1e+01]
  Bounds range     [1e+00, 1e+00]
  RHS range        [1e+00, 2e+00]
Found heuristic solution: objective -0
Presolve removed 1018 rows and 309 columns
Presolve time: 0.00s
Presolved: 202 rows, 111 columns, 424 nonzeros
Variable types: 0 continuous, 111 integer (111 binary)

Root relaxation: objective 3.746667e+02, 157 iterations, 0.00 seconds

    Nodes    |    Current Node    |     Objective Bounds      |     Work
 Expl Unexpl |  Obj  Depth IntInf | Incumbent    BestBd   Gap | It/Node Time

     0     0  374.66667    0  111   -0.00000  374.66667      -     -    0s
H    0     0                     220.0000000  374.66667  70.3%     -    0s
H    0     0                     240.0000000  374.66667  56.1%     -    0s
     0     0  317.83333    0  111  240.00000  317.83333  32.4%     -    0s
H    0     0                     270.0000000  317.83333  17.7%     -    0s
H    0     0                     280.0000000  317.83333  13.5%     -    0s
     0     0  311.66667    0  108  280.00000  311.66667  11.3%     -    0s
     0     0  310.55556    0  108  280.00000  310.55556  10.9%     -    0s
     0     0  309.54545    0  110  280.00000  309.54545  10.6%     -    0s
     0     0  309.54545    0  110  280.00000  309.54545  10.6%     -    0s
     0     2  309.54545    0  110  280.00000  309.54545  10.6%     -    0s

Cutting planes:
  Gomory: 3
  Clique: 126
  MIR: 1
  Zero half: 14

Explored 10 nodes (566 simplex iterations) in 0.04 seconds
Thread count was 4 (of 4 available processors)

Solution count 5: 280 270 240 ... -0
Pool objective bound 280

Optimal solution found (tolerance 1.00e-04)
Best objective 2.800000000000e+02, best bound 2.800000000000e+02, gap 0.0000%

Gurobi 7.0.2 (linux64, Java) logging started Mon 20 May 2019 09:48:21 PM -03

Optimize a model with 650 rows, 420 columns and 1110 nonzeros
Variable types: 0 continuous, 420 integer (420 binary)
Coefficient statistics:
  Matrix range     [1e+00, 1e+00]
  Objective range  [1e+00, 1e+01]
  Bounds range     [1e+00, 1e+00]
  RHS range        [1e+00, 2e+00]
Found heuristic solution: objective -0
Presolve removed 448 rows and 309 columns
Presolve time: 0.00s
Presolved: 202 rows, 111 columns, 424 nonzeros
Variable types: 0 continuous, 111 integer (111 binary)

Root relaxation: objective 3.746667e+02, 157 iterations, 0.00 seconds

    Nodes    |    Current Node    |     Objective Bounds      |     Work
 Expl Unexpl |  Obj  Depth IntInf | Incumbent    BestBd   Gap | It/Node Time

     0     0  374.66667    0  111   -0.00000  374.66667      -     -    0s
H    0     0                     220.0000000  374.66667  70.3%     -    0s
H    0     0                     240.0000000  374.66667  56.1%     -    0s
     0     0  317.83333    0  111  240.00000  317.83333  32.4%     -    0s
H    0     0                     270.0000000  317.83333  17.7%     -    0s
H    0     0                     280.0000000  317.83333  13.5%     -    0s
     0     0  311.66667    0  108  280.00000  311.66667  11.3%     -    0s
     0     0  310.55556    0  108  280.00000  310.55556  10.9%     -    0s
     0     0  309.54545    0  110  280.00000  309.54545  10.6%     -    0s
     0     0  309.54545    0  110  280.00000  309.54545  10.6%     -    0s
     0     2  309.54545    0  110  280.00000  309.54545  10.6%     -    0s

Cutting planes:
  Gomory: 3
  Clique: 126
  MIR: 1
  Zero half: 14

Explored 10 nodes (566 simplex iterations) in 0.04 seconds
Thread count was 4 (of 4 available processors)

Solution count 5: 280 270 240 ... -0
Pool objective bound 280

Optimal solution found (tolerance 1.00e-04)
Best objective 2.800000000000e+02, best bound 2.800000000000e+02, gap 0.0000%

Gurobi 7.0.2 (linux64, Java) logging started Mon 20 May 2019 09:51:56 PM -03

Optimize a model with 650 rows, 420 columns and 1700 nonzeros
Variable types: 0 continuous, 420 integer (420 binary)
Coefficient statistics:
  Matrix range     [1e+00, 2e+00]
  Objective range  [1e+00, 1e+01]
  Bounds range     [1e+00, 1e+00]
  RHS range        [1e+00, 2e+00]
Found heuristic solution: objective -0
Presolve removed 509 rows and 338 columns
Presolve time: 0.00s
Presolved: 141 rows, 82 columns, 358 nonzeros
Variable types: 0 continuous, 82 integer (82 binary)

Root relaxation: objective 2.800000e+02, 58 iterations, 0.00 seconds

    Nodes    |    Current Node    |     Objective Bounds      |     Work
 Expl Unexpl |  Obj  Depth IntInf | Incumbent    BestBd   Gap | It/Node Time

     0     0  280.00000    0   35   -0.00000  280.00000      -     -    0s
H    0     0                     231.0000000  280.00000  21.2%     -    0s
H    0     0                     269.0000000  280.00000  4.09%     -    0s
H    0     0                     272.0000000  280.00000  2.94%     -    0s
     0     0  276.50000    0   31  272.00000  276.50000  1.65%     -    0s
     0     0     cutoff    0       272.00000  272.99973  0.37%     -    0s

Cutting planes:
  Gomory: 1
  Clique: 7
  Zero half: 12

Explored 0 nodes (70 simplex iterations) in 0.01 seconds
Thread count was 4 (of 4 available processors)

Solution count 4: 272 269 231 -0 
Pool objective bound 272

Optimal solution found (tolerance 1.00e-04)
Best objective 2.720000000000e+02, best bound 2.720000000000e+02, gap 0.0000%

Gurobi 7.0.2 (linux64, Java) logging started Mon 20 May 2019 09:52:28 PM -03

Optimize a model with 650 rows, 420 columns and 1510 nonzeros
Variable types: 0 continuous, 420 integer (420 binary)
Coefficient statistics:
  Matrix range     [1e+00, 2e+00]
  Objective range  [1e+00, 1e+01]
  Bounds range     [1e+00, 1e+00]
  RHS range        [1e+00, 2e+00]
Found heuristic solution: objective -0
Presolve removed 60 rows and 210 columns
Presolve time: 0.00s
Presolved: 590 rows, 210 columns, 1390 nonzeros
Variable types: 0 continuous, 210 integer (210 binary)

Root relaxation: objective 2.485000e+02, 197 iterations, 0.00 seconds

    Nodes    |    Current Node    |     Objective Bounds      |     Work
 Expl Unexpl |  Obj  Depth IntInf | Incumbent    BestBd   Gap | It/Node Time

     0     0  248.50000    0  111   -0.00000  248.50000      -     -    0s
H    0     0                      46.0000000  248.50000   440%     -    0s
H    0     0                      74.0000000  248.50000   236%     -    0s
H    0     0                     112.0000000  248.50000   122%     -    0s
     0     0  224.00000    0  104  112.00000  224.00000   100%     -    0s
     0     0  206.50000    0   93  112.00000  206.50000  84.4%     -    0s
H    0     0                     120.0000000  206.50000  72.1%     -    0s
     0     0  191.00000    0   99  120.00000  191.00000  59.2%     -    0s
     0     0  170.50000    0  155  120.00000  170.50000  42.1%     -    0s
     0     0  158.25000    0  155  120.00000  158.25000  31.9%     -    0s
     0     0  157.50000    0  156  120.00000  157.50000  31.2%     -    0s
H    0     0                     125.0000000  157.50000  26.0%     -    0s
     0     0  151.00000    0  101  125.00000  151.00000  20.8%     -    0s
     0     0  150.50000    0  149  125.00000  150.50000  20.4%     -    0s
     0     0  148.66250    0  171  125.00000  148.66250  18.9%     -    0s
     0     0  148.66250    0  169  125.00000  148.66250  18.9%     -    0s
     0     2  148.66250    0  169  125.00000  148.66250  18.9%     -    0s

Cutting planes:
  Gomory: 1
  Zero half: 111

Explored 15 nodes (1344 simplex iterations) in 0.11 seconds
Thread count was 4 (of 4 available processors)

Solution count 6: 125 120 112 ... -0
Pool objective bound 125

Optimal solution found (tolerance 1.00e-04)
Best objective 1.250000000000e+02, best bound 1.250000000000e+02, gap 0.0000%

Gurobi 7.0.2 (linux64, Java) logging started Mon 20 May 2019 09:52:54 PM -03

Optimize a model with 2500 rows, 1640 columns and 5820 nonzeros
Variable types: 0 continuous, 1640 integer (1640 binary)
Coefficient statistics:
  Matrix range     [1e+00, 2e+00]
  Objective range  [1e+00, 1e+01]
  Bounds range     [1e+00, 1e+00]
  RHS range        [1e+00, 2e+00]
Found heuristic solution: objective -0
Presolve removed 120 rows and 820 columns
Presolve time: 0.02s
Presolved: 2380 rows, 820 columns, 5580 nonzeros
Variable types: 0 continuous, 820 integer (820 binary)

Root relaxation: objective 9.915000e+02, 833 iterations, 0.03 seconds

    Nodes    |    Current Node    |     Objective Bounds      |     Work
 Expl Unexpl |  Obj  Depth IntInf | Incumbent    BestBd   Gap | It/Node Time

     0     0  991.50000    0  404   -0.00000  991.50000      -     -    0s
H    0     0                     124.0000000  991.50000   700%     -    0s
H    0     0                     200.0000000  991.50000   396%     -    0s
H    0     0                     208.0000000  991.50000   377%     -    0s
     0     0  939.00000    0  383  208.00000  939.00000   351%     -    0s
H    0     0                     226.0000000  939.00000   315%     -    0s
     0     0  897.50000    0  400  226.00000  897.50000   297%     -    0s
     0     0  852.75000    0  421  226.00000  852.75000   277%     -    0s
     0     0  811.75000    0  439  226.00000  811.75000   259%     -    0s
     0     0  784.00000    0  448  226.00000  784.00000   247%     -    0s
     0     0  783.25000    0  448  226.00000  783.25000   247%     -    0s
     0     0  767.50000    0  437  226.00000  767.50000   240%     -    0s
     0     0  731.16667    0  457  226.00000  731.16667   224%     -    0s
H    0     0                     296.0000000  731.16667   147%     -    0s
     0     0  730.62500    0  455  296.00000  730.62500   147%     -    0s
     0     0  687.62500    0  473  296.00000  687.62500   132%     -    0s
     0     0  687.43750    0  471  296.00000  687.43750   132%     -    0s
H    0     0                     313.0000000  687.43750   120%     -    0s
     0     0  659.22500    0  491  313.00000  659.22500   111%     -    0s
     0     0  657.87500    0  489  313.00000  657.87500   110%     -    0s
     0     0  621.00000    0  503  313.00000  621.00000  98.4%     -    0s
     0     0  618.38333    0  503  313.00000  618.38333  97.6%     -    1s
     0     0  585.08333    0  483  313.00000  585.08333  86.9%     -    1s
     0     0  584.91667    0  483  313.00000  584.91667  86.9%     -    1s
     0     0  563.50000    0  412  313.00000  563.50000  80.0%     -    1s
     0     0  545.25000    0  564  313.00000  545.25000  74.2%     -    1s
     0     0  545.25000    0  562  313.00000  545.25000  74.2%     -    1s
     0     2  545.25000    0  562  313.00000  545.25000  74.2%     -    3s
    23    22  377.84615    5  566  313.00000  460.28125  47.1%  1161    5s
H   29    30                     366.0000000  460.28125  25.8%  1188    6s
    87    14  371.41419    7  549  366.00000  432.62272  18.2%  1085   10s

Cutting planes:
  Gomory: 4
  Zero half: 2014

Explored 138 nodes (134671 simplex iterations) in 12.58 seconds
Thread count was 4 (of 4 available processors)

Solution count 8: 366 313 296 ... -0
Pool objective bound 366

Optimal solution found (tolerance 1.00e-04)
Best objective 3.660000000000e+02, best bound 3.660000000000e+02, gap 0.0000%
